(set-logic QF_LRA)
(declare-fun T1 () Real )
(declare-fun T2 () Real )
(declare-fun T3 () Real )
(declare-fun T4 () Real )
(declare-fun T5 () Real )
(declare-fun T6 () Real )
(declare-fun T7 () Real )
(declare-fun T8 () Real )
(declare-fun T9 () Real )
(declare-fun T10 () Real )
(declare-fun Z () Real )
(declare-fun k () Real )
(assert (let
(( $goal (>= Z k) ))
(let
((
$phi ( and 
(or ( <= ( + T1 1 ) T2 ) ( <= ( + T2 51 ) T1 ) )
(or ( <= ( + T1 30 )  ( + T2 51 ) ) ( <= ( + T2 60 )( + T1 1 ) ) )
(or ( <= ( + T1 112 )  ( + T2 60 ) ) ( <= ( + T2 134 )( + T1 30 ) ) )
(or ( <= ( + T1 132 )  ( + T2 134 ) ) ( <= ( + T2 200 )( + T1 112 ) ) )
(or ( <= ( + T1 216 )  ( + T2 200 ) ) ( <= ( + T2 283 )( + T1 132 ) ) )
(or ( <= ( + T1 252 )  ( + T2 283 ) ) ( <= ( + T2 333 )( + T1 216 ) ) )
(or ( <= ( + T1 346 )  ( + T2 333 ) ) ( <= ( + T2 405 )( + T1 252 ) ) )
(or ( <= ( + T1 356 )  ( + T2 405 ) ) ( <= ( + T2 489 )( + T1 346 ) ) )
(or ( <= ( + T1 360 )  ( + T2 489 ) ) ( <= ( + T2 511 )( + T1 356 ) ) )
(or ( <= ( + T1 405 )  ( + T2 511 ) ) ( <= ( + T2 601 )( + T1 360 ) ) )
(or ( <= ( + T1 461 )  ( + T2 601 ) ) ( <= ( + T2 649 )( + T1 405 ) ) )
(or ( <= ( + T1 498 )  ( + T2 649 ) ) ( <= ( + T2 672 )( + T1 461 ) ) )
(or ( <= ( + T1 1 ) T3 ) ( <= ( + T3 59 ) T1 ) )
(or ( <= ( + T1 30 )  ( + T3 59 ) ) ( <= ( + T3 136 )( + T1 1 ) ) )
(or ( <= ( + T1 112 )  ( + T3 136 ) ) ( <= ( + T3 162 )( + T1 30 ) ) )
(or ( <= ( + T1 132 )  ( + T3 162 ) ) ( <= ( + T3 181 )( + T1 112 ) ) )
(or ( <= ( + T1 216 )  ( + T3 181 ) ) ( <= ( + T3 192 )( + T1 132 ) ) )
(or ( <= ( + T1 252 )  ( + T3 192 ) ) ( <= ( + T3 292 )( + T1 216 ) ) )
(or ( <= ( + T1 346 )  ( + T3 292 ) ) ( <= ( + T3 351 )( + T1 252 ) ) )
(or ( <= ( + T1 356 )  ( + T3 351 ) ) ( <= ( + T3 362 )( + T1 346 ) ) )
(or ( <= ( + T1 360 )  ( + T3 362 ) ) ( <= ( + T3 391 )( + T1 356 ) ) )
(or ( <= ( + T1 405 )  ( + T3 391 ) ) ( <= ( + T3 483 )( + T1 360 ) ) )
(or ( <= ( + T1 461 )  ( + T3 483 ) ) ( <= ( + T3 565 )( + T1 405 ) ) )
(or ( <= ( + T1 498 )  ( + T3 565 ) ) ( <= ( + T3 577 )( + T1 461 ) ) )
(or ( <= ( + T1 1 ) T4 ) ( <= ( + T4 28 ) T1 ) )
(or ( <= ( + T1 30 )  ( + T4 28 ) ) ( <= ( + T4 56 )( + T1 1 ) ) )
(or ( <= ( + T1 112 )  ( + T4 56 ) ) ( <= ( + T4 129 )( + T1 30 ) ) )
(or ( <= ( + T1 132 )  ( + T4 129 ) ) ( <= ( + T4 160 )( + T1 112 ) ) )
(or ( <= ( + T1 216 )  ( + T4 160 ) ) ( <= ( + T4 184 )( + T1 132 ) ) )
(or ( <= ( + T1 252 )  ( + T4 184 ) ) ( <= ( + T4 264 )( + T1 216 ) ) )
(or ( <= ( + T1 346 )  ( + T4 264 ) ) ( <= ( + T4 283 )( + T1 252 ) ) )
(or ( <= ( + T1 356 )  ( + T4 283 ) ) ( <= ( + T4 357 )( + T1 346 ) ) )
(or ( <= ( + T1 360 )  ( + T4 357 ) ) ( <= ( + T4 445 )( + T1 356 ) ) )
(or ( <= ( + T1 405 )  ( + T4 445 ) ) ( <= ( + T4 537 )( + T1 360 ) ) )
(or ( <= ( + T1 461 )  ( + T4 537 ) ) ( <= ( + T4 577 )( + T1 405 ) ) )
(or ( <= ( + T1 498 )  ( + T4 577 ) ) ( <= ( + T4 647 )( + T1 461 ) ) )
(or ( <= ( + T1 1 ) T5 ) ( <= ( + T5 93 ) T1 ) )
(or ( <= ( + T1 30 )  ( + T5 93 ) ) ( <= ( + T5 104 )( + T1 1 ) ) )
(or ( <= ( + T1 112 )  ( + T5 104 ) ) ( <= ( + T5 157 )( + T1 30 ) ) )
(or ( <= ( + T1 132 )  ( + T5 157 ) ) ( <= ( + T5 171 )( + T1 112 ) ) )
(or ( <= ( + T1 216 )  ( + T5 171 ) ) ( <= ( + T5 271 )( + T1 132 ) ) )
(or ( <= ( + T1 252 )  ( + T5 271 ) ) ( <= ( + T5 323 )( + T1 216 ) ) )
(or ( <= ( + T1 346 )  ( + T5 323 ) ) ( <= ( + T5 411 )( + T1 252 ) ) )
(or ( <= ( + T1 356 )  ( + T5 411 ) ) ( <= ( + T5 421 )( + T1 346 ) ) )
(or ( <= ( + T1 360 )  ( + T5 421 ) ) ( <= ( + T5 449 )( + T1 356 ) ) )
(or ( <= ( + T1 405 )  ( + T5 449 ) ) ( <= ( + T5 514 )( + T1 360 ) ) )
(or ( <= ( + T1 461 )  ( + T5 514 ) ) ( <= ( + T5 542 )( + T1 405 ) ) )
(or ( <= ( + T1 498 )  ( + T5 542 ) ) ( <= ( + T5 633 )( + T1 461 ) ) )
(or ( <= ( + T1 1 ) T6 ) ( <= ( + T6 17 ) T1 ) )
(or ( <= ( + T1 30 )  ( + T6 17 ) ) ( <= ( + T6 56 )( + T1 1 ) ) )
(or ( <= ( + T1 112 )  ( + T6 56 ) ) ( <= ( + T6 109 )( + T1 30 ) ) )
(or ( <= ( + T1 132 )  ( + T6 109 ) ) ( <= ( + T6 154 )( + T1 112 ) ) )
(or ( <= ( + T1 216 )  ( + T6 154 ) ) ( <= ( + T6 184 )( + T1 132 ) ) )
(or ( <= ( + T1 252 )  ( + T6 184 ) ) ( <= ( + T6 219 )( + T1 216 ) ) )
(or ( <= ( + T1 346 )  ( + T6 219 ) ) ( <= ( + T6 227 )( + T1 252 ) ) )
(or ( <= ( + T1 356 )  ( + T6 227 ) ) ( <= ( + T6 236 )( + T1 346 ) ) )
(or ( <= ( + T1 360 )  ( + T6 236 ) ) ( <= ( + T6 298 )( + T1 356 ) ) )
(or ( <= ( + T1 405 )  ( + T6 298 ) ) ( <= ( + T6 378 )( + T1 360 ) ) )
(or ( <= ( + T1 461 )  ( + T6 378 ) ) ( <= ( + T6 469 )( + T1 405 ) ) )
(or ( <= ( + T1 498 )  ( + T6 469 ) ) ( <= ( + T6 554 )( + T1 461 ) ) )
(or ( <= ( + T1 1 ) T7 ) ( <= ( + T7 11 ) T1 ) )
(or ( <= ( + T1 30 )  ( + T7 11 ) ) ( <= ( + T7 20 )( + T1 1 ) ) )
(or ( <= ( + T1 112 )  ( + T7 20 ) ) ( <= ( + T7 78 )( + T1 30 ) ) )
(or ( <= ( + T1 132 )  ( + T7 78 ) ) ( <= ( + T7 176 )( + T1 112 ) ) )
(or ( <= ( + T1 216 )  ( + T7 176 ) ) ( <= ( + T7 228 )( + T1 132 ) ) )
(or ( <= ( + T1 252 )  ( + T7 228 ) ) ( <= ( + T7 277 )( + T1 216 ) ) )
(or ( <= ( + T1 346 )  ( + T7 277 ) ) ( <= ( + T7 296 )( + T1 252 ) ) )
(or ( <= ( + T1 356 )  ( + T7 296 ) ) ( <= ( + T7 340 )( + T1 346 ) ) )
(or ( <= ( + T1 360 )  ( + T7 340 ) ) ( <= ( + T7 399 )( + T1 356 ) ) )
(or ( <= ( + T1 405 )  ( + T7 399 ) ) ( <= ( + T7 423 )( + T1 360 ) ) )
(or ( <= ( + T1 461 )  ( + T7 423 ) ) ( <= ( + T7 432 )( + T1 405 ) ) )
(or ( <= ( + T1 498 )  ( + T7 432 ) ) ( <= ( + T7 443 )( + T1 461 ) ) )
(or ( <= ( + T1 1 ) T8 ) ( <= ( + T8 75 ) T1 ) )
(or ( <= ( + T1 30 )  ( + T8 75 ) ) ( <= ( + T8 123 )( + T1 1 ) ) )
(or ( <= ( + T1 112 )  ( + T8 123 ) ) ( <= ( + T8 143 )( + T1 30 ) ) )
(or ( <= ( + T1 132 )  ( + T8 143 ) ) ( <= ( + T8 198 )( + T1 112 ) ) )
(or ( <= ( + T1 216 )  ( + T8 198 ) ) ( <= ( + T8 211 )( + T1 132 ) ) )
(or ( <= ( + T1 252 )  ( + T8 211 ) ) ( <= ( + T8 311 )( + T1 216 ) ) )
(or ( <= ( + T1 346 )  ( + T8 311 ) ) ( <= ( + T8 356 )( + T1 252 ) ) )
(or ( <= ( + T1 356 )  ( + T8 356 ) ) ( <= ( + T8 385 )( + T1 346 ) ) )
(or ( <= ( + T1 360 )  ( + T8 385 ) ) ( <= ( + T8 423 )( + T1 356 ) ) )
(or ( <= ( + T1 405 )  ( + T8 423 ) ) ( <= ( + T8 472 )( + T1 360 ) ) )
(or ( <= ( + T1 461 )  ( + T8 472 ) ) ( <= ( + T8 497 )( + T1 405 ) ) )
(or ( <= ( + T1 498 )  ( + T8 497 ) ) ( <= ( + T8 516 )( + T1 461 ) ) )
(or ( <= ( + T1 1 ) T9 ) ( <= ( + T9 83 ) T1 ) )
(or ( <= ( + T1 30 )  ( + T9 83 ) ) ( <= ( + T9 167 )( + T1 1 ) ) )
(or ( <= ( + T1 112 )  ( + T9 167 ) ) ( <= ( + T9 195 )( + T1 30 ) ) )
(or ( <= ( + T1 132 )  ( + T9 195 ) ) ( <= ( + T9 291 )( + T1 112 ) ) )
(or ( <= ( + T1 216 )  ( + T9 291 ) ) ( <= ( + T9 306 )( + T1 132 ) ) )
(or ( <= ( + T1 252 )  ( + T9 306 ) ) ( <= ( + T9 324 )( + T1 216 ) ) )
(or ( <= ( + T1 346 )  ( + T9 324 ) ) ( <= ( + T9 404 )( + T1 252 ) ) )
(or ( <= ( + T1 356 )  ( + T9 404 ) ) ( <= ( + T9 429 )( + T1 346 ) ) )
(or ( <= ( + T1 360 )  ( + T9 429 ) ) ( <= ( + T9 456 )( + T1 356 ) ) )
(or ( <= ( + T1 405 )  ( + T9 456 ) ) ( <= ( + T9 546 )( + T1 360 ) ) )
(or ( <= ( + T1 461 )  ( + T9 546 ) ) ( <= ( + T9 568 )( + T1 405 ) ) )
(or ( <= ( + T1 498 )  ( + T9 568 ) ) ( <= ( + T9 598 )( + T1 461 ) ) )
(or ( <= ( + T1 1 ) T10 ) ( <= ( + T10 38 ) T1 ) )
(or ( <= ( + T1 30 )  ( + T10 38 ) ) ( <= ( + T10 130 )( + T1 1 ) ) )
(or ( <= ( + T1 112 )  ( + T10 130 ) ) ( <= ( + T10 204 )( + T1 30 ) ) )
(or ( <= ( + T1 132 )  ( + T10 204 ) ) ( <= ( + T10 253 )( + T1 112 ) ) )
(or ( <= ( + T1 216 )  ( + T10 253 ) ) ( <= ( + T10 268 )( + T1 132 ) ) )
(or ( <= ( + T1 252 )  ( + T10 268 ) ) ( <= ( + T10 350 )( + T1 216 ) ) )
(or ( <= ( + T1 346 )  ( + T10 350 ) ) ( <= ( + T10 409 )( + T1 252 ) ) )
(or ( <= ( + T1 356 )  ( + T10 409 ) ) ( <= ( + T10 499 )( + T1 346 ) ) )
(or ( <= ( + T1 360 )  ( + T10 499 ) ) ( <= ( + T10 529 )( + T1 356 ) ) )
(or ( <= ( + T1 405 )  ( + T10 529 ) ) ( <= ( + T10 559 )( + T1 360 ) ) )
(or ( <= ( + T1 461 )  ( + T10 559 ) ) ( <= ( + T10 655 )( + T1 405 ) ) )
(or ( <= ( + T1 498 )  ( + T10 655 ) ) ( <= ( + T10 749 )( + T1 461 ) ) )
(or ( <= ( + T2 51 ) T3 ) ( <= ( + T3 59 ) T2 ) )
(or ( <= ( + T2 60 )  ( + T3 59 ) ) ( <= ( + T3 136 )( + T2 51 ) ) )
(or ( <= ( + T2 134 )  ( + T3 136 ) ) ( <= ( + T3 162 )( + T2 60 ) ) )
(or ( <= ( + T2 200 )  ( + T3 162 ) ) ( <= ( + T3 181 )( + T2 134 ) ) )
(or ( <= ( + T2 283 )  ( + T3 181 ) ) ( <= ( + T3 192 )( + T2 200 ) ) )
(or ( <= ( + T2 333 )  ( + T3 192 ) ) ( <= ( + T3 292 )( + T2 283 ) ) )
(or ( <= ( + T2 405 )  ( + T3 292 ) ) ( <= ( + T3 351 )( + T2 333 ) ) )
(or ( <= ( + T2 489 )  ( + T3 351 ) ) ( <= ( + T3 362 )( + T2 405 ) ) )
(or ( <= ( + T2 511 )  ( + T3 362 ) ) ( <= ( + T3 391 )( + T2 489 ) ) )
(or ( <= ( + T2 601 )  ( + T3 391 ) ) ( <= ( + T3 483 )( + T2 511 ) ) )
(or ( <= ( + T2 649 )  ( + T3 483 ) ) ( <= ( + T3 565 )( + T2 601 ) ) )
(or ( <= ( + T2 672 )  ( + T3 565 ) ) ( <= ( + T3 577 )( + T2 649 ) ) )
(or ( <= ( + T2 51 ) T4 ) ( <= ( + T4 28 ) T2 ) )
(or ( <= ( + T2 60 )  ( + T4 28 ) ) ( <= ( + T4 56 )( + T2 51 ) ) )
(or ( <= ( + T2 134 )  ( + T4 56 ) ) ( <= ( + T4 129 )( + T2 60 ) ) )
(or ( <= ( + T2 200 )  ( + T4 129 ) ) ( <= ( + T4 160 )( + T2 134 ) ) )
(or ( <= ( + T2 283 )  ( + T4 160 ) ) ( <= ( + T4 184 )( + T2 200 ) ) )
(or ( <= ( + T2 333 )  ( + T4 184 ) ) ( <= ( + T4 264 )( + T2 283 ) ) )
(or ( <= ( + T2 405 )  ( + T4 264 ) ) ( <= ( + T4 283 )( + T2 333 ) ) )
(or ( <= ( + T2 489 )  ( + T4 283 ) ) ( <= ( + T4 357 )( + T2 405 ) ) )
(or ( <= ( + T2 511 )  ( + T4 357 ) ) ( <= ( + T4 445 )( + T2 489 ) ) )
(or ( <= ( + T2 601 )  ( + T4 445 ) ) ( <= ( + T4 537 )( + T2 511 ) ) )
(or ( <= ( + T2 649 )  ( + T4 537 ) ) ( <= ( + T4 577 )( + T2 601 ) ) )
(or ( <= ( + T2 672 )  ( + T4 577 ) ) ( <= ( + T4 647 )( + T2 649 ) ) )
(or ( <= ( + T2 51 ) T5 ) ( <= ( + T5 93 ) T2 ) )
(or ( <= ( + T2 60 )  ( + T5 93 ) ) ( <= ( + T5 104 )( + T2 51 ) ) )
(or ( <= ( + T2 134 )  ( + T5 104 ) ) ( <= ( + T5 157 )( + T2 60 ) ) )
(or ( <= ( + T2 200 )  ( + T5 157 ) ) ( <= ( + T5 171 )( + T2 134 ) ) )
(or ( <= ( + T2 283 )  ( + T5 171 ) ) ( <= ( + T5 271 )( + T2 200 ) ) )
(or ( <= ( + T2 333 )  ( + T5 271 ) ) ( <= ( + T5 323 )( + T2 283 ) ) )
(or ( <= ( + T2 405 )  ( + T5 323 ) ) ( <= ( + T5 411 )( + T2 333 ) ) )
(or ( <= ( + T2 489 )  ( + T5 411 ) ) ( <= ( + T5 421 )( + T2 405 ) ) )
(or ( <= ( + T2 511 )  ( + T5 421 ) ) ( <= ( + T5 449 )( + T2 489 ) ) )
(or ( <= ( + T2 601 )  ( + T5 449 ) ) ( <= ( + T5 514 )( + T2 511 ) ) )
(or ( <= ( + T2 649 )  ( + T5 514 ) ) ( <= ( + T5 542 )( + T2 601 ) ) )
(or ( <= ( + T2 672 )  ( + T5 542 ) ) ( <= ( + T5 633 )( + T2 649 ) ) )
(or ( <= ( + T2 51 ) T6 ) ( <= ( + T6 17 ) T2 ) )
(or ( <= ( + T2 60 )  ( + T6 17 ) ) ( <= ( + T6 56 )( + T2 51 ) ) )
(or ( <= ( + T2 134 )  ( + T6 56 ) ) ( <= ( + T6 109 )( + T2 60 ) ) )
(or ( <= ( + T2 200 )  ( + T6 109 ) ) ( <= ( + T6 154 )( + T2 134 ) ) )
(or ( <= ( + T2 283 )  ( + T6 154 ) ) ( <= ( + T6 184 )( + T2 200 ) ) )
(or ( <= ( + T2 333 )  ( + T6 184 ) ) ( <= ( + T6 219 )( + T2 283 ) ) )
(or ( <= ( + T2 405 )  ( + T6 219 ) ) ( <= ( + T6 227 )( + T2 333 ) ) )
(or ( <= ( + T2 489 )  ( + T6 227 ) ) ( <= ( + T6 236 )( + T2 405 ) ) )
(or ( <= ( + T2 511 )  ( + T6 236 ) ) ( <= ( + T6 298 )( + T2 489 ) ) )
(or ( <= ( + T2 601 )  ( + T6 298 ) ) ( <= ( + T6 378 )( + T2 511 ) ) )
(or ( <= ( + T2 649 )  ( + T6 378 ) ) ( <= ( + T6 469 )( + T2 601 ) ) )
(or ( <= ( + T2 672 )  ( + T6 469 ) ) ( <= ( + T6 554 )( + T2 649 ) ) )
(or ( <= ( + T2 51 ) T7 ) ( <= ( + T7 11 ) T2 ) )
(or ( <= ( + T2 60 )  ( + T7 11 ) ) ( <= ( + T7 20 )( + T2 51 ) ) )
(or ( <= ( + T2 134 )  ( + T7 20 ) ) ( <= ( + T7 78 )( + T2 60 ) ) )
(or ( <= ( + T2 200 )  ( + T7 78 ) ) ( <= ( + T7 176 )( + T2 134 ) ) )
(or ( <= ( + T2 283 )  ( + T7 176 ) ) ( <= ( + T7 228 )( + T2 200 ) ) )
(or ( <= ( + T2 333 )  ( + T7 228 ) ) ( <= ( + T7 277 )( + T2 283 ) ) )
(or ( <= ( + T2 405 )  ( + T7 277 ) ) ( <= ( + T7 296 )( + T2 333 ) ) )
(or ( <= ( + T2 489 )  ( + T7 296 ) ) ( <= ( + T7 340 )( + T2 405 ) ) )
(or ( <= ( + T2 511 )  ( + T7 340 ) ) ( <= ( + T7 399 )( + T2 489 ) ) )
(or ( <= ( + T2 601 )  ( + T7 399 ) ) ( <= ( + T7 423 )( + T2 511 ) ) )
(or ( <= ( + T2 649 )  ( + T7 423 ) ) ( <= ( + T7 432 )( + T2 601 ) ) )
(or ( <= ( + T2 672 )  ( + T7 432 ) ) ( <= ( + T7 443 )( + T2 649 ) ) )
(or ( <= ( + T2 51 ) T8 ) ( <= ( + T8 75 ) T2 ) )
(or ( <= ( + T2 60 )  ( + T8 75 ) ) ( <= ( + T8 123 )( + T2 51 ) ) )
(or ( <= ( + T2 134 )  ( + T8 123 ) ) ( <= ( + T8 143 )( + T2 60 ) ) )
(or ( <= ( + T2 200 )  ( + T8 143 ) ) ( <= ( + T8 198 )( + T2 134 ) ) )
(or ( <= ( + T2 283 )  ( + T8 198 ) ) ( <= ( + T8 211 )( + T2 200 ) ) )
(or ( <= ( + T2 333 )  ( + T8 211 ) ) ( <= ( + T8 311 )( + T2 283 ) ) )
(or ( <= ( + T2 405 )  ( + T8 311 ) ) ( <= ( + T8 356 )( + T2 333 ) ) )
(or ( <= ( + T2 489 )  ( + T8 356 ) ) ( <= ( + T8 385 )( + T2 405 ) ) )
(or ( <= ( + T2 511 )  ( + T8 385 ) ) ( <= ( + T8 423 )( + T2 489 ) ) )
(or ( <= ( + T2 601 )  ( + T8 423 ) ) ( <= ( + T8 472 )( + T2 511 ) ) )
(or ( <= ( + T2 649 )  ( + T8 472 ) ) ( <= ( + T8 497 )( + T2 601 ) ) )
(or ( <= ( + T2 672 )  ( + T8 497 ) ) ( <= ( + T8 516 )( + T2 649 ) ) )
(or ( <= ( + T2 51 ) T9 ) ( <= ( + T9 83 ) T2 ) )
(or ( <= ( + T2 60 )  ( + T9 83 ) ) ( <= ( + T9 167 )( + T2 51 ) ) )
(or ( <= ( + T2 134 )  ( + T9 167 ) ) ( <= ( + T9 195 )( + T2 60 ) ) )
(or ( <= ( + T2 200 )  ( + T9 195 ) ) ( <= ( + T9 291 )( + T2 134 ) ) )
(or ( <= ( + T2 283 )  ( + T9 291 ) ) ( <= ( + T9 306 )( + T2 200 ) ) )
(or ( <= ( + T2 333 )  ( + T9 306 ) ) ( <= ( + T9 324 )( + T2 283 ) ) )
(or ( <= ( + T2 405 )  ( + T9 324 ) ) ( <= ( + T9 404 )( + T2 333 ) ) )
(or ( <= ( + T2 489 )  ( + T9 404 ) ) ( <= ( + T9 429 )( + T2 405 ) ) )
(or ( <= ( + T2 511 )  ( + T9 429 ) ) ( <= ( + T9 456 )( + T2 489 ) ) )
(or ( <= ( + T2 601 )  ( + T9 456 ) ) ( <= ( + T9 546 )( + T2 511 ) ) )
(or ( <= ( + T2 649 )  ( + T9 546 ) ) ( <= ( + T9 568 )( + T2 601 ) ) )
(or ( <= ( + T2 672 )  ( + T9 568 ) ) ( <= ( + T9 598 )( + T2 649 ) ) )
(or ( <= ( + T2 51 ) T10 ) ( <= ( + T10 38 ) T2 ) )
(or ( <= ( + T2 60 )  ( + T10 38 ) ) ( <= ( + T10 130 )( + T2 51 ) ) )
(or ( <= ( + T2 134 )  ( + T10 130 ) ) ( <= ( + T10 204 )( + T2 60 ) ) )
(or ( <= ( + T2 200 )  ( + T10 204 ) ) ( <= ( + T10 253 )( + T2 134 ) ) )
(or ( <= ( + T2 283 )  ( + T10 253 ) ) ( <= ( + T10 268 )( + T2 200 ) ) )
(or ( <= ( + T2 333 )  ( + T10 268 ) ) ( <= ( + T10 350 )( + T2 283 ) ) )
(or ( <= ( + T2 405 )  ( + T10 350 ) ) ( <= ( + T10 409 )( + T2 333 ) ) )
(or ( <= ( + T2 489 )  ( + T10 409 ) ) ( <= ( + T10 499 )( + T2 405 ) ) )
(or ( <= ( + T2 511 )  ( + T10 499 ) ) ( <= ( + T10 529 )( + T2 489 ) ) )
(or ( <= ( + T2 601 )  ( + T10 529 ) ) ( <= ( + T10 559 )( + T2 511 ) ) )
(or ( <= ( + T2 649 )  ( + T10 559 ) ) ( <= ( + T10 655 )( + T2 601 ) ) )
(or ( <= ( + T2 672 )  ( + T10 655 ) ) ( <= ( + T10 749 )( + T2 649 ) ) )
(or ( <= ( + T3 59 ) T4 ) ( <= ( + T4 28 ) T3 ) )
(or ( <= ( + T3 136 )  ( + T4 28 ) ) ( <= ( + T4 56 )( + T3 59 ) ) )
(or ( <= ( + T3 162 )  ( + T4 56 ) ) ( <= ( + T4 129 )( + T3 136 ) ) )
(or ( <= ( + T3 181 )  ( + T4 129 ) ) ( <= ( + T4 160 )( + T3 162 ) ) )
(or ( <= ( + T3 192 )  ( + T4 160 ) ) ( <= ( + T4 184 )( + T3 181 ) ) )
(or ( <= ( + T3 292 )  ( + T4 184 ) ) ( <= ( + T4 264 )( + T3 192 ) ) )
(or ( <= ( + T3 351 )  ( + T4 264 ) ) ( <= ( + T4 283 )( + T3 292 ) ) )
(or ( <= ( + T3 362 )  ( + T4 283 ) ) ( <= ( + T4 357 )( + T3 351 ) ) )
(or ( <= ( + T3 391 )  ( + T4 357 ) ) ( <= ( + T4 445 )( + T3 362 ) ) )
(or ( <= ( + T3 483 )  ( + T4 445 ) ) ( <= ( + T4 537 )( + T3 391 ) ) )
(or ( <= ( + T3 565 )  ( + T4 537 ) ) ( <= ( + T4 577 )( + T3 483 ) ) )
(or ( <= ( + T3 577 )  ( + T4 577 ) ) ( <= ( + T4 647 )( + T3 565 ) ) )
(or ( <= ( + T3 59 ) T5 ) ( <= ( + T5 93 ) T3 ) )
(or ( <= ( + T3 136 )  ( + T5 93 ) ) ( <= ( + T5 104 )( + T3 59 ) ) )
(or ( <= ( + T3 162 )  ( + T5 104 ) ) ( <= ( + T5 157 )( + T3 136 ) ) )
(or ( <= ( + T3 181 )  ( + T5 157 ) ) ( <= ( + T5 171 )( + T3 162 ) ) )
(or ( <= ( + T3 192 )  ( + T5 171 ) ) ( <= ( + T5 271 )( + T3 181 ) ) )
(or ( <= ( + T3 292 )  ( + T5 271 ) ) ( <= ( + T5 323 )( + T3 192 ) ) )
(or ( <= ( + T3 351 )  ( + T5 323 ) ) ( <= ( + T5 411 )( + T3 292 ) ) )
(or ( <= ( + T3 362 )  ( + T5 411 ) ) ( <= ( + T5 421 )( + T3 351 ) ) )
(or ( <= ( + T3 391 )  ( + T5 421 ) ) ( <= ( + T5 449 )( + T3 362 ) ) )
(or ( <= ( + T3 483 )  ( + T5 449 ) ) ( <= ( + T5 514 )( + T3 391 ) ) )
(or ( <= ( + T3 565 )  ( + T5 514 ) ) ( <= ( + T5 542 )( + T3 483 ) ) )
(or ( <= ( + T3 577 )  ( + T5 542 ) ) ( <= ( + T5 633 )( + T3 565 ) ) )
(or ( <= ( + T3 59 ) T6 ) ( <= ( + T6 17 ) T3 ) )
(or ( <= ( + T3 136 )  ( + T6 17 ) ) ( <= ( + T6 56 )( + T3 59 ) ) )
(or ( <= ( + T3 162 )  ( + T6 56 ) ) ( <= ( + T6 109 )( + T3 136 ) ) )
(or ( <= ( + T3 181 )  ( + T6 109 ) ) ( <= ( + T6 154 )( + T3 162 ) ) )
(or ( <= ( + T3 192 )  ( + T6 154 ) ) ( <= ( + T6 184 )( + T3 181 ) ) )
(or ( <= ( + T3 292 )  ( + T6 184 ) ) ( <= ( + T6 219 )( + T3 192 ) ) )
(or ( <= ( + T3 351 )  ( + T6 219 ) ) ( <= ( + T6 227 )( + T3 292 ) ) )
(or ( <= ( + T3 362 )  ( + T6 227 ) ) ( <= ( + T6 236 )( + T3 351 ) ) )
(or ( <= ( + T3 391 )  ( + T6 236 ) ) ( <= ( + T6 298 )( + T3 362 ) ) )
(or ( <= ( + T3 483 )  ( + T6 298 ) ) ( <= ( + T6 378 )( + T3 391 ) ) )
(or ( <= ( + T3 565 )  ( + T6 378 ) ) ( <= ( + T6 469 )( + T3 483 ) ) )
(or ( <= ( + T3 577 )  ( + T6 469 ) ) ( <= ( + T6 554 )( + T3 565 ) ) )
(or ( <= ( + T3 59 ) T7 ) ( <= ( + T7 11 ) T3 ) )
(or ( <= ( + T3 136 )  ( + T7 11 ) ) ( <= ( + T7 20 )( + T3 59 ) ) )
(or ( <= ( + T3 162 )  ( + T7 20 ) ) ( <= ( + T7 78 )( + T3 136 ) ) )
(or ( <= ( + T3 181 )  ( + T7 78 ) ) ( <= ( + T7 176 )( + T3 162 ) ) )
(or ( <= ( + T3 192 )  ( + T7 176 ) ) ( <= ( + T7 228 )( + T3 181 ) ) )
(or ( <= ( + T3 292 )  ( + T7 228 ) ) ( <= ( + T7 277 )( + T3 192 ) ) )
(or ( <= ( + T3 351 )  ( + T7 277 ) ) ( <= ( + T7 296 )( + T3 292 ) ) )
(or ( <= ( + T3 362 )  ( + T7 296 ) ) ( <= ( + T7 340 )( + T3 351 ) ) )
(or ( <= ( + T3 391 )  ( + T7 340 ) ) ( <= ( + T7 399 )( + T3 362 ) ) )
(or ( <= ( + T3 483 )  ( + T7 399 ) ) ( <= ( + T7 423 )( + T3 391 ) ) )
(or ( <= ( + T3 565 )  ( + T7 423 ) ) ( <= ( + T7 432 )( + T3 483 ) ) )
(or ( <= ( + T3 577 )  ( + T7 432 ) ) ( <= ( + T7 443 )( + T3 565 ) ) )
(or ( <= ( + T3 59 ) T8 ) ( <= ( + T8 75 ) T3 ) )
(or ( <= ( + T3 136 )  ( + T8 75 ) ) ( <= ( + T8 123 )( + T3 59 ) ) )
(or ( <= ( + T3 162 )  ( + T8 123 ) ) ( <= ( + T8 143 )( + T3 136 ) ) )
(or ( <= ( + T3 181 )  ( + T8 143 ) ) ( <= ( + T8 198 )( + T3 162 ) ) )
(or ( <= ( + T3 192 )  ( + T8 198 ) ) ( <= ( + T8 211 )( + T3 181 ) ) )
(or ( <= ( + T3 292 )  ( + T8 211 ) ) ( <= ( + T8 311 )( + T3 192 ) ) )
(or ( <= ( + T3 351 )  ( + T8 311 ) ) ( <= ( + T8 356 )( + T3 292 ) ) )
(or ( <= ( + T3 362 )  ( + T8 356 ) ) ( <= ( + T8 385 )( + T3 351 ) ) )
(or ( <= ( + T3 391 )  ( + T8 385 ) ) ( <= ( + T8 423 )( + T3 362 ) ) )
(or ( <= ( + T3 483 )  ( + T8 423 ) ) ( <= ( + T8 472 )( + T3 391 ) ) )
(or ( <= ( + T3 565 )  ( + T8 472 ) ) ( <= ( + T8 497 )( + T3 483 ) ) )
(or ( <= ( + T3 577 )  ( + T8 497 ) ) ( <= ( + T8 516 )( + T3 565 ) ) )
(or ( <= ( + T3 59 ) T9 ) ( <= ( + T9 83 ) T3 ) )
(or ( <= ( + T3 136 )  ( + T9 83 ) ) ( <= ( + T9 167 )( + T3 59 ) ) )
(or ( <= ( + T3 162 )  ( + T9 167 ) ) ( <= ( + T9 195 )( + T3 136 ) ) )
(or ( <= ( + T3 181 )  ( + T9 195 ) ) ( <= ( + T9 291 )( + T3 162 ) ) )
(or ( <= ( + T3 192 )  ( + T9 291 ) ) ( <= ( + T9 306 )( + T3 181 ) ) )
(or ( <= ( + T3 292 )  ( + T9 306 ) ) ( <= ( + T9 324 )( + T3 192 ) ) )
(or ( <= ( + T3 351 )  ( + T9 324 ) ) ( <= ( + T9 404 )( + T3 292 ) ) )
(or ( <= ( + T3 362 )  ( + T9 404 ) ) ( <= ( + T9 429 )( + T3 351 ) ) )
(or ( <= ( + T3 391 )  ( + T9 429 ) ) ( <= ( + T9 456 )( + T3 362 ) ) )
(or ( <= ( + T3 483 )  ( + T9 456 ) ) ( <= ( + T9 546 )( + T3 391 ) ) )
(or ( <= ( + T3 565 )  ( + T9 546 ) ) ( <= ( + T9 568 )( + T3 483 ) ) )
(or ( <= ( + T3 577 )  ( + T9 568 ) ) ( <= ( + T9 598 )( + T3 565 ) ) )
(or ( <= ( + T3 59 ) T10 ) ( <= ( + T10 38 ) T3 ) )
(or ( <= ( + T3 136 )  ( + T10 38 ) ) ( <= ( + T10 130 )( + T3 59 ) ) )
(or ( <= ( + T3 162 )  ( + T10 130 ) ) ( <= ( + T10 204 )( + T3 136 ) ) )
(or ( <= ( + T3 181 )  ( + T10 204 ) ) ( <= ( + T10 253 )( + T3 162 ) ) )
(or ( <= ( + T3 192 )  ( + T10 253 ) ) ( <= ( + T10 268 )( + T3 181 ) ) )
(or ( <= ( + T3 292 )  ( + T10 268 ) ) ( <= ( + T10 350 )( + T3 192 ) ) )
(or ( <= ( + T3 351 )  ( + T10 350 ) ) ( <= ( + T10 409 )( + T3 292 ) ) )
(or ( <= ( + T3 362 )  ( + T10 409 ) ) ( <= ( + T10 499 )( + T3 351 ) ) )
(or ( <= ( + T3 391 )  ( + T10 499 ) ) ( <= ( + T10 529 )( + T3 362 ) ) )
(or ( <= ( + T3 483 )  ( + T10 529 ) ) ( <= ( + T10 559 )( + T3 391 ) ) )
(or ( <= ( + T3 565 )  ( + T10 559 ) ) ( <= ( + T10 655 )( + T3 483 ) ) )
(or ( <= ( + T3 577 )  ( + T10 655 ) ) ( <= ( + T10 749 )( + T3 565 ) ) )
(or ( <= ( + T4 28 ) T5 ) ( <= ( + T5 93 ) T4 ) )
(or ( <= ( + T4 56 )  ( + T5 93 ) ) ( <= ( + T5 104 )( + T4 28 ) ) )
(or ( <= ( + T4 129 )  ( + T5 104 ) ) ( <= ( + T5 157 )( + T4 56 ) ) )
(or ( <= ( + T4 160 )  ( + T5 157 ) ) ( <= ( + T5 171 )( + T4 129 ) ) )
(or ( <= ( + T4 184 )  ( + T5 171 ) ) ( <= ( + T5 271 )( + T4 160 ) ) )
(or ( <= ( + T4 264 )  ( + T5 271 ) ) ( <= ( + T5 323 )( + T4 184 ) ) )
(or ( <= ( + T4 283 )  ( + T5 323 ) ) ( <= ( + T5 411 )( + T4 264 ) ) )
(or ( <= ( + T4 357 )  ( + T5 411 ) ) ( <= ( + T5 421 )( + T4 283 ) ) )
(or ( <= ( + T4 445 )  ( + T5 421 ) ) ( <= ( + T5 449 )( + T4 357 ) ) )
(or ( <= ( + T4 537 )  ( + T5 449 ) ) ( <= ( + T5 514 )( + T4 445 ) ) )
(or ( <= ( + T4 577 )  ( + T5 514 ) ) ( <= ( + T5 542 )( + T4 537 ) ) )
(or ( <= ( + T4 647 )  ( + T5 542 ) ) ( <= ( + T5 633 )( + T4 577 ) ) )
(or ( <= ( + T4 28 ) T6 ) ( <= ( + T6 17 ) T4 ) )
(or ( <= ( + T4 56 )  ( + T6 17 ) ) ( <= ( + T6 56 )( + T4 28 ) ) )
(or ( <= ( + T4 129 )  ( + T6 56 ) ) ( <= ( + T6 109 )( + T4 56 ) ) )
(or ( <= ( + T4 160 )  ( + T6 109 ) ) ( <= ( + T6 154 )( + T4 129 ) ) )
(or ( <= ( + T4 184 )  ( + T6 154 ) ) ( <= ( + T6 184 )( + T4 160 ) ) )
(or ( <= ( + T4 264 )  ( + T6 184 ) ) ( <= ( + T6 219 )( + T4 184 ) ) )
(or ( <= ( + T4 283 )  ( + T6 219 ) ) ( <= ( + T6 227 )( + T4 264 ) ) )
(or ( <= ( + T4 357 )  ( + T6 227 ) ) ( <= ( + T6 236 )( + T4 283 ) ) )
(or ( <= ( + T4 445 )  ( + T6 236 ) ) ( <= ( + T6 298 )( + T4 357 ) ) )
(or ( <= ( + T4 537 )  ( + T6 298 ) ) ( <= ( + T6 378 )( + T4 445 ) ) )
(or ( <= ( + T4 577 )  ( + T6 378 ) ) ( <= ( + T6 469 )( + T4 537 ) ) )
(or ( <= ( + T4 647 )  ( + T6 469 ) ) ( <= ( + T6 554 )( + T4 577 ) ) )
(or ( <= ( + T4 28 ) T7 ) ( <= ( + T7 11 ) T4 ) )
(or ( <= ( + T4 56 )  ( + T7 11 ) ) ( <= ( + T7 20 )( + T4 28 ) ) )
(or ( <= ( + T4 129 )  ( + T7 20 ) ) ( <= ( + T7 78 )( + T4 56 ) ) )
(or ( <= ( + T4 160 )  ( + T7 78 ) ) ( <= ( + T7 176 )( + T4 129 ) ) )
(or ( <= ( + T4 184 )  ( + T7 176 ) ) ( <= ( + T7 228 )( + T4 160 ) ) )
(or ( <= ( + T4 264 )  ( + T7 228 ) ) ( <= ( + T7 277 )( + T4 184 ) ) )
(or ( <= ( + T4 283 )  ( + T7 277 ) ) ( <= ( + T7 296 )( + T4 264 ) ) )
(or ( <= ( + T4 357 )  ( + T7 296 ) ) ( <= ( + T7 340 )( + T4 283 ) ) )
(or ( <= ( + T4 445 )  ( + T7 340 ) ) ( <= ( + T7 399 )( + T4 357 ) ) )
(or ( <= ( + T4 537 )  ( + T7 399 ) ) ( <= ( + T7 423 )( + T4 445 ) ) )
(or ( <= ( + T4 577 )  ( + T7 423 ) ) ( <= ( + T7 432 )( + T4 537 ) ) )
(or ( <= ( + T4 647 )  ( + T7 432 ) ) ( <= ( + T7 443 )( + T4 577 ) ) )
(or ( <= ( + T4 28 ) T8 ) ( <= ( + T8 75 ) T4 ) )
(or ( <= ( + T4 56 )  ( + T8 75 ) ) ( <= ( + T8 123 )( + T4 28 ) ) )
(or ( <= ( + T4 129 )  ( + T8 123 ) ) ( <= ( + T8 143 )( + T4 56 ) ) )
(or ( <= ( + T4 160 )  ( + T8 143 ) ) ( <= ( + T8 198 )( + T4 129 ) ) )
(or ( <= ( + T4 184 )  ( + T8 198 ) ) ( <= ( + T8 211 )( + T4 160 ) ) )
(or ( <= ( + T4 264 )  ( + T8 211 ) ) ( <= ( + T8 311 )( + T4 184 ) ) )
(or ( <= ( + T4 283 )  ( + T8 311 ) ) ( <= ( + T8 356 )( + T4 264 ) ) )
(or ( <= ( + T4 357 )  ( + T8 356 ) ) ( <= ( + T8 385 )( + T4 283 ) ) )
(or ( <= ( + T4 445 )  ( + T8 385 ) ) ( <= ( + T8 423 )( + T4 357 ) ) )
(or ( <= ( + T4 537 )  ( + T8 423 ) ) ( <= ( + T8 472 )( + T4 445 ) ) )
(or ( <= ( + T4 577 )  ( + T8 472 ) ) ( <= ( + T8 497 )( + T4 537 ) ) )
(or ( <= ( + T4 647 )  ( + T8 497 ) ) ( <= ( + T8 516 )( + T4 577 ) ) )
(or ( <= ( + T4 28 ) T9 ) ( <= ( + T9 83 ) T4 ) )
(or ( <= ( + T4 56 )  ( + T9 83 ) ) ( <= ( + T9 167 )( + T4 28 ) ) )
(or ( <= ( + T4 129 )  ( + T9 167 ) ) ( <= ( + T9 195 )( + T4 56 ) ) )
(or ( <= ( + T4 160 )  ( + T9 195 ) ) ( <= ( + T9 291 )( + T4 129 ) ) )
(or ( <= ( + T4 184 )  ( + T9 291 ) ) ( <= ( + T9 306 )( + T4 160 ) ) )
(or ( <= ( + T4 264 )  ( + T9 306 ) ) ( <= ( + T9 324 )( + T4 184 ) ) )
(or ( <= ( + T4 283 )  ( + T9 324 ) ) ( <= ( + T9 404 )( + T4 264 ) ) )
(or ( <= ( + T4 357 )  ( + T9 404 ) ) ( <= ( + T9 429 )( + T4 283 ) ) )
(or ( <= ( + T4 445 )  ( + T9 429 ) ) ( <= ( + T9 456 )( + T4 357 ) ) )
(or ( <= ( + T4 537 )  ( + T9 456 ) ) ( <= ( + T9 546 )( + T4 445 ) ) )
(or ( <= ( + T4 577 )  ( + T9 546 ) ) ( <= ( + T9 568 )( + T4 537 ) ) )
(or ( <= ( + T4 647 )  ( + T9 568 ) ) ( <= ( + T9 598 )( + T4 577 ) ) )
(or ( <= ( + T4 28 ) T10 ) ( <= ( + T10 38 ) T4 ) )
(or ( <= ( + T4 56 )  ( + T10 38 ) ) ( <= ( + T10 130 )( + T4 28 ) ) )
(or ( <= ( + T4 129 )  ( + T10 130 ) ) ( <= ( + T10 204 )( + T4 56 ) ) )
(or ( <= ( + T4 160 )  ( + T10 204 ) ) ( <= ( + T10 253 )( + T4 129 ) ) )
(or ( <= ( + T4 184 )  ( + T10 253 ) ) ( <= ( + T10 268 )( + T4 160 ) ) )
(or ( <= ( + T4 264 )  ( + T10 268 ) ) ( <= ( + T10 350 )( + T4 184 ) ) )
(or ( <= ( + T4 283 )  ( + T10 350 ) ) ( <= ( + T10 409 )( + T4 264 ) ) )
(or ( <= ( + T4 357 )  ( + T10 409 ) ) ( <= ( + T10 499 )( + T4 283 ) ) )
(or ( <= ( + T4 445 )  ( + T10 499 ) ) ( <= ( + T10 529 )( + T4 357 ) ) )
(or ( <= ( + T4 537 )  ( + T10 529 ) ) ( <= ( + T10 559 )( + T4 445 ) ) )
(or ( <= ( + T4 577 )  ( + T10 559 ) ) ( <= ( + T10 655 )( + T4 537 ) ) )
(or ( <= ( + T4 647 )  ( + T10 655 ) ) ( <= ( + T10 749 )( + T4 577 ) ) )
(or ( <= ( + T5 93 ) T6 ) ( <= ( + T6 17 ) T5 ) )
(or ( <= ( + T5 104 )  ( + T6 17 ) ) ( <= ( + T6 56 )( + T5 93 ) ) )
(or ( <= ( + T5 157 )  ( + T6 56 ) ) ( <= ( + T6 109 )( + T5 104 ) ) )
(or ( <= ( + T5 171 )  ( + T6 109 ) ) ( <= ( + T6 154 )( + T5 157 ) ) )
(or ( <= ( + T5 271 )  ( + T6 154 ) ) ( <= ( + T6 184 )( + T5 171 ) ) )
(or ( <= ( + T5 323 )  ( + T6 184 ) ) ( <= ( + T6 219 )( + T5 271 ) ) )
(or ( <= ( + T5 411 )  ( + T6 219 ) ) ( <= ( + T6 227 )( + T5 323 ) ) )
(or ( <= ( + T5 421 )  ( + T6 227 ) ) ( <= ( + T6 236 )( + T5 411 ) ) )
(or ( <= ( + T5 449 )  ( + T6 236 ) ) ( <= ( + T6 298 )( + T5 421 ) ) )
(or ( <= ( + T5 514 )  ( + T6 298 ) ) ( <= ( + T6 378 )( + T5 449 ) ) )
(or ( <= ( + T5 542 )  ( + T6 378 ) ) ( <= ( + T6 469 )( + T5 514 ) ) )
(or ( <= ( + T5 633 )  ( + T6 469 ) ) ( <= ( + T6 554 )( + T5 542 ) ) )
(or ( <= ( + T5 93 ) T7 ) ( <= ( + T7 11 ) T5 ) )
(or ( <= ( + T5 104 )  ( + T7 11 ) ) ( <= ( + T7 20 )( + T5 93 ) ) )
(or ( <= ( + T5 157 )  ( + T7 20 ) ) ( <= ( + T7 78 )( + T5 104 ) ) )
(or ( <= ( + T5 171 )  ( + T7 78 ) ) ( <= ( + T7 176 )( + T5 157 ) ) )
(or ( <= ( + T5 271 )  ( + T7 176 ) ) ( <= ( + T7 228 )( + T5 171 ) ) )
(or ( <= ( + T5 323 )  ( + T7 228 ) ) ( <= ( + T7 277 )( + T5 271 ) ) )
(or ( <= ( + T5 411 )  ( + T7 277 ) ) ( <= ( + T7 296 )( + T5 323 ) ) )
(or ( <= ( + T5 421 )  ( + T7 296 ) ) ( <= ( + T7 340 )( + T5 411 ) ) )
(or ( <= ( + T5 449 )  ( + T7 340 ) ) ( <= ( + T7 399 )( + T5 421 ) ) )
(or ( <= ( + T5 514 )  ( + T7 399 ) ) ( <= ( + T7 423 )( + T5 449 ) ) )
(or ( <= ( + T5 542 )  ( + T7 423 ) ) ( <= ( + T7 432 )( + T5 514 ) ) )
(or ( <= ( + T5 633 )  ( + T7 432 ) ) ( <= ( + T7 443 )( + T5 542 ) ) )
(or ( <= ( + T5 93 ) T8 ) ( <= ( + T8 75 ) T5 ) )
(or ( <= ( + T5 104 )  ( + T8 75 ) ) ( <= ( + T8 123 )( + T5 93 ) ) )
(or ( <= ( + T5 157 )  ( + T8 123 ) ) ( <= ( + T8 143 )( + T5 104 ) ) )
(or ( <= ( + T5 171 )  ( + T8 143 ) ) ( <= ( + T8 198 )( + T5 157 ) ) )
(or ( <= ( + T5 271 )  ( + T8 198 ) ) ( <= ( + T8 211 )( + T5 171 ) ) )
(or ( <= ( + T5 323 )  ( + T8 211 ) ) ( <= ( + T8 311 )( + T5 271 ) ) )
(or ( <= ( + T5 411 )  ( + T8 311 ) ) ( <= ( + T8 356 )( + T5 323 ) ) )
(or ( <= ( + T5 421 )  ( + T8 356 ) ) ( <= ( + T8 385 )( + T5 411 ) ) )
(or ( <= ( + T5 449 )  ( + T8 385 ) ) ( <= ( + T8 423 )( + T5 421 ) ) )
(or ( <= ( + T5 514 )  ( + T8 423 ) ) ( <= ( + T8 472 )( + T5 449 ) ) )
(or ( <= ( + T5 542 )  ( + T8 472 ) ) ( <= ( + T8 497 )( + T5 514 ) ) )
(or ( <= ( + T5 633 )  ( + T8 497 ) ) ( <= ( + T8 516 )( + T5 542 ) ) )
(or ( <= ( + T5 93 ) T9 ) ( <= ( + T9 83 ) T5 ) )
(or ( <= ( + T5 104 )  ( + T9 83 ) ) ( <= ( + T9 167 )( + T5 93 ) ) )
(or ( <= ( + T5 157 )  ( + T9 167 ) ) ( <= ( + T9 195 )( + T5 104 ) ) )
(or ( <= ( + T5 171 )  ( + T9 195 ) ) ( <= ( + T9 291 )( + T5 157 ) ) )
(or ( <= ( + T5 271 )  ( + T9 291 ) ) ( <= ( + T9 306 )( + T5 171 ) ) )
(or ( <= ( + T5 323 )  ( + T9 306 ) ) ( <= ( + T9 324 )( + T5 271 ) ) )
(or ( <= ( + T5 411 )  ( + T9 324 ) ) ( <= ( + T9 404 )( + T5 323 ) ) )
(or ( <= ( + T5 421 )  ( + T9 404 ) ) ( <= ( + T9 429 )( + T5 411 ) ) )
(or ( <= ( + T5 449 )  ( + T9 429 ) ) ( <= ( + T9 456 )( + T5 421 ) ) )
(or ( <= ( + T5 514 )  ( + T9 456 ) ) ( <= ( + T9 546 )( + T5 449 ) ) )
(or ( <= ( + T5 542 )  ( + T9 546 ) ) ( <= ( + T9 568 )( + T5 514 ) ) )
(or ( <= ( + T5 633 )  ( + T9 568 ) ) ( <= ( + T9 598 )( + T5 542 ) ) )
(or ( <= ( + T5 93 ) T10 ) ( <= ( + T10 38 ) T5 ) )
(or ( <= ( + T5 104 )  ( + T10 38 ) ) ( <= ( + T10 130 )( + T5 93 ) ) )
(or ( <= ( + T5 157 )  ( + T10 130 ) ) ( <= ( + T10 204 )( + T5 104 ) ) )
(or ( <= ( + T5 171 )  ( + T10 204 ) ) ( <= ( + T10 253 )( + T5 157 ) ) )
(or ( <= ( + T5 271 )  ( + T10 253 ) ) ( <= ( + T10 268 )( + T5 171 ) ) )
(or ( <= ( + T5 323 )  ( + T10 268 ) ) ( <= ( + T10 350 )( + T5 271 ) ) )
(or ( <= ( + T5 411 )  ( + T10 350 ) ) ( <= ( + T10 409 )( + T5 323 ) ) )
(or ( <= ( + T5 421 )  ( + T10 409 ) ) ( <= ( + T10 499 )( + T5 411 ) ) )
(or ( <= ( + T5 449 )  ( + T10 499 ) ) ( <= ( + T10 529 )( + T5 421 ) ) )
(or ( <= ( + T5 514 )  ( + T10 529 ) ) ( <= ( + T10 559 )( + T5 449 ) ) )
(or ( <= ( + T5 542 )  ( + T10 559 ) ) ( <= ( + T10 655 )( + T5 514 ) ) )
(or ( <= ( + T5 633 )  ( + T10 655 ) ) ( <= ( + T10 749 )( + T5 542 ) ) )
(or ( <= ( + T6 17 ) T7 ) ( <= ( + T7 11 ) T6 ) )
(or ( <= ( + T6 56 )  ( + T7 11 ) ) ( <= ( + T7 20 )( + T6 17 ) ) )
(or ( <= ( + T6 109 )  ( + T7 20 ) ) ( <= ( + T7 78 )( + T6 56 ) ) )
(or ( <= ( + T6 154 )  ( + T7 78 ) ) ( <= ( + T7 176 )( + T6 109 ) ) )
(or ( <= ( + T6 184 )  ( + T7 176 ) ) ( <= ( + T7 228 )( + T6 154 ) ) )
(or ( <= ( + T6 219 )  ( + T7 228 ) ) ( <= ( + T7 277 )( + T6 184 ) ) )
(or ( <= ( + T6 227 )  ( + T7 277 ) ) ( <= ( + T7 296 )( + T6 219 ) ) )
(or ( <= ( + T6 236 )  ( + T7 296 ) ) ( <= ( + T7 340 )( + T6 227 ) ) )
(or ( <= ( + T6 298 )  ( + T7 340 ) ) ( <= ( + T7 399 )( + T6 236 ) ) )
(or ( <= ( + T6 378 )  ( + T7 399 ) ) ( <= ( + T7 423 )( + T6 298 ) ) )
(or ( <= ( + T6 469 )  ( + T7 423 ) ) ( <= ( + T7 432 )( + T6 378 ) ) )
(or ( <= ( + T6 554 )  ( + T7 432 ) ) ( <= ( + T7 443 )( + T6 469 ) ) )
(or ( <= ( + T6 17 ) T8 ) ( <= ( + T8 75 ) T6 ) )
(or ( <= ( + T6 56 )  ( + T8 75 ) ) ( <= ( + T8 123 )( + T6 17 ) ) )
(or ( <= ( + T6 109 )  ( + T8 123 ) ) ( <= ( + T8 143 )( + T6 56 ) ) )
(or ( <= ( + T6 154 )  ( + T8 143 ) ) ( <= ( + T8 198 )( + T6 109 ) ) )
(or ( <= ( + T6 184 )  ( + T8 198 ) ) ( <= ( + T8 211 )( + T6 154 ) ) )
(or ( <= ( + T6 219 )  ( + T8 211 ) ) ( <= ( + T8 311 )( + T6 184 ) ) )
(or ( <= ( + T6 227 )  ( + T8 311 ) ) ( <= ( + T8 356 )( + T6 219 ) ) )
(or ( <= ( + T6 236 )  ( + T8 356 ) ) ( <= ( + T8 385 )( + T6 227 ) ) )
(or ( <= ( + T6 298 )  ( + T8 385 ) ) ( <= ( + T8 423 )( + T6 236 ) ) )
(or ( <= ( + T6 378 )  ( + T8 423 ) ) ( <= ( + T8 472 )( + T6 298 ) ) )
(or ( <= ( + T6 469 )  ( + T8 472 ) ) ( <= ( + T8 497 )( + T6 378 ) ) )
(or ( <= ( + T6 554 )  ( + T8 497 ) ) ( <= ( + T8 516 )( + T6 469 ) ) )
(or ( <= ( + T6 17 ) T9 ) ( <= ( + T9 83 ) T6 ) )
(or ( <= ( + T6 56 )  ( + T9 83 ) ) ( <= ( + T9 167 )( + T6 17 ) ) )
(or ( <= ( + T6 109 )  ( + T9 167 ) ) ( <= ( + T9 195 )( + T6 56 ) ) )
(or ( <= ( + T6 154 )  ( + T9 195 ) ) ( <= ( + T9 291 )( + T6 109 ) ) )
(or ( <= ( + T6 184 )  ( + T9 291 ) ) ( <= ( + T9 306 )( + T6 154 ) ) )
(or ( <= ( + T6 219 )  ( + T9 306 ) ) ( <= ( + T9 324 )( + T6 184 ) ) )
(or ( <= ( + T6 227 )  ( + T9 324 ) ) ( <= ( + T9 404 )( + T6 219 ) ) )
(or ( <= ( + T6 236 )  ( + T9 404 ) ) ( <= ( + T9 429 )( + T6 227 ) ) )
(or ( <= ( + T6 298 )  ( + T9 429 ) ) ( <= ( + T9 456 )( + T6 236 ) ) )
(or ( <= ( + T6 378 )  ( + T9 456 ) ) ( <= ( + T9 546 )( + T6 298 ) ) )
(or ( <= ( + T6 469 )  ( + T9 546 ) ) ( <= ( + T9 568 )( + T6 378 ) ) )
(or ( <= ( + T6 554 )  ( + T9 568 ) ) ( <= ( + T9 598 )( + T6 469 ) ) )
(or ( <= ( + T6 17 ) T10 ) ( <= ( + T10 38 ) T6 ) )
(or ( <= ( + T6 56 )  ( + T10 38 ) ) ( <= ( + T10 130 )( + T6 17 ) ) )
(or ( <= ( + T6 109 )  ( + T10 130 ) ) ( <= ( + T10 204 )( + T6 56 ) ) )
(or ( <= ( + T6 154 )  ( + T10 204 ) ) ( <= ( + T10 253 )( + T6 109 ) ) )
(or ( <= ( + T6 184 )  ( + T10 253 ) ) ( <= ( + T10 268 )( + T6 154 ) ) )
(or ( <= ( + T6 219 )  ( + T10 268 ) ) ( <= ( + T10 350 )( + T6 184 ) ) )
(or ( <= ( + T6 227 )  ( + T10 350 ) ) ( <= ( + T10 409 )( + T6 219 ) ) )
(or ( <= ( + T6 236 )  ( + T10 409 ) ) ( <= ( + T10 499 )( + T6 227 ) ) )
(or ( <= ( + T6 298 )  ( + T10 499 ) ) ( <= ( + T10 529 )( + T6 236 ) ) )
(or ( <= ( + T6 378 )  ( + T10 529 ) ) ( <= ( + T10 559 )( + T6 298 ) ) )
(or ( <= ( + T6 469 )  ( + T10 559 ) ) ( <= ( + T10 655 )( + T6 378 ) ) )
(or ( <= ( + T6 554 )  ( + T10 655 ) ) ( <= ( + T10 749 )( + T6 469 ) ) )
(or ( <= ( + T7 11 ) T8 ) ( <= ( + T8 75 ) T7 ) )
(or ( <= ( + T7 20 )  ( + T8 75 ) ) ( <= ( + T8 123 )( + T7 11 ) ) )
(or ( <= ( + T7 78 )  ( + T8 123 ) ) ( <= ( + T8 143 )( + T7 20 ) ) )
(or ( <= ( + T7 176 )  ( + T8 143 ) ) ( <= ( + T8 198 )( + T7 78 ) ) )
(or ( <= ( + T7 228 )  ( + T8 198 ) ) ( <= ( + T8 211 )( + T7 176 ) ) )
(or ( <= ( + T7 277 )  ( + T8 211 ) ) ( <= ( + T8 311 )( + T7 228 ) ) )
(or ( <= ( + T7 296 )  ( + T8 311 ) ) ( <= ( + T8 356 )( + T7 277 ) ) )
(or ( <= ( + T7 340 )  ( + T8 356 ) ) ( <= ( + T8 385 )( + T7 296 ) ) )
(or ( <= ( + T7 399 )  ( + T8 385 ) ) ( <= ( + T8 423 )( + T7 340 ) ) )
(or ( <= ( + T7 423 )  ( + T8 423 ) ) ( <= ( + T8 472 )( + T7 399 ) ) )
(or ( <= ( + T7 432 )  ( + T8 472 ) ) ( <= ( + T8 497 )( + T7 423 ) ) )
(or ( <= ( + T7 443 )  ( + T8 497 ) ) ( <= ( + T8 516 )( + T7 432 ) ) )
(or ( <= ( + T7 11 ) T9 ) ( <= ( + T9 83 ) T7 ) )
(or ( <= ( + T7 20 )  ( + T9 83 ) ) ( <= ( + T9 167 )( + T7 11 ) ) )
(or ( <= ( + T7 78 )  ( + T9 167 ) ) ( <= ( + T9 195 )( + T7 20 ) ) )
(or ( <= ( + T7 176 )  ( + T9 195 ) ) ( <= ( + T9 291 )( + T7 78 ) ) )
(or ( <= ( + T7 228 )  ( + T9 291 ) ) ( <= ( + T9 306 )( + T7 176 ) ) )
(or ( <= ( + T7 277 )  ( + T9 306 ) ) ( <= ( + T9 324 )( + T7 228 ) ) )
(or ( <= ( + T7 296 )  ( + T9 324 ) ) ( <= ( + T9 404 )( + T7 277 ) ) )
(or ( <= ( + T7 340 )  ( + T9 404 ) ) ( <= ( + T9 429 )( + T7 296 ) ) )
(or ( <= ( + T7 399 )  ( + T9 429 ) ) ( <= ( + T9 456 )( + T7 340 ) ) )
(or ( <= ( + T7 423 )  ( + T9 456 ) ) ( <= ( + T9 546 )( + T7 399 ) ) )
(or ( <= ( + T7 432 )  ( + T9 546 ) ) ( <= ( + T9 568 )( + T7 423 ) ) )
(or ( <= ( + T7 443 )  ( + T9 568 ) ) ( <= ( + T9 598 )( + T7 432 ) ) )
(or ( <= ( + T7 11 ) T10 ) ( <= ( + T10 38 ) T7 ) )
(or ( <= ( + T7 20 )  ( + T10 38 ) ) ( <= ( + T10 130 )( + T7 11 ) ) )
(or ( <= ( + T7 78 )  ( + T10 130 ) ) ( <= ( + T10 204 )( + T7 20 ) ) )
(or ( <= ( + T7 176 )  ( + T10 204 ) ) ( <= ( + T10 253 )( + T7 78 ) ) )
(or ( <= ( + T7 228 )  ( + T10 253 ) ) ( <= ( + T10 268 )( + T7 176 ) ) )
(or ( <= ( + T7 277 )  ( + T10 268 ) ) ( <= ( + T10 350 )( + T7 228 ) ) )
(or ( <= ( + T7 296 )  ( + T10 350 ) ) ( <= ( + T10 409 )( + T7 277 ) ) )
(or ( <= ( + T7 340 )  ( + T10 409 ) ) ( <= ( + T10 499 )( + T7 296 ) ) )
(or ( <= ( + T7 399 )  ( + T10 499 ) ) ( <= ( + T10 529 )( + T7 340 ) ) )
(or ( <= ( + T7 423 )  ( + T10 529 ) ) ( <= ( + T10 559 )( + T7 399 ) ) )
(or ( <= ( + T7 432 )  ( + T10 559 ) ) ( <= ( + T10 655 )( + T7 423 ) ) )
(or ( <= ( + T7 443 )  ( + T10 655 ) ) ( <= ( + T10 749 )( + T7 432 ) ) )
(or ( <= ( + T8 75 ) T9 ) ( <= ( + T9 83 ) T8 ) )
(or ( <= ( + T8 123 )  ( + T9 83 ) ) ( <= ( + T9 167 )( + T8 75 ) ) )
(or ( <= ( + T8 143 )  ( + T9 167 ) ) ( <= ( + T9 195 )( + T8 123 ) ) )
(or ( <= ( + T8 198 )  ( + T9 195 ) ) ( <= ( + T9 291 )( + T8 143 ) ) )
(or ( <= ( + T8 211 )  ( + T9 291 ) ) ( <= ( + T9 306 )( + T8 198 ) ) )
(or ( <= ( + T8 311 )  ( + T9 306 ) ) ( <= ( + T9 324 )( + T8 211 ) ) )
(or ( <= ( + T8 356 )  ( + T9 324 ) ) ( <= ( + T9 404 )( + T8 311 ) ) )
(or ( <= ( + T8 385 )  ( + T9 404 ) ) ( <= ( + T9 429 )( + T8 356 ) ) )
(or ( <= ( + T8 423 )  ( + T9 429 ) ) ( <= ( + T9 456 )( + T8 385 ) ) )
(or ( <= ( + T8 472 )  ( + T9 456 ) ) ( <= ( + T9 546 )( + T8 423 ) ) )
(or ( <= ( + T8 497 )  ( + T9 546 ) ) ( <= ( + T9 568 )( + T8 472 ) ) )
(or ( <= ( + T8 516 )  ( + T9 568 ) ) ( <= ( + T9 598 )( + T8 497 ) ) )
(or ( <= ( + T8 75 ) T10 ) ( <= ( + T10 38 ) T8 ) )
(or ( <= ( + T8 123 )  ( + T10 38 ) ) ( <= ( + T10 130 )( + T8 75 ) ) )
(or ( <= ( + T8 143 )  ( + T10 130 ) ) ( <= ( + T10 204 )( + T8 123 ) ) )
(or ( <= ( + T8 198 )  ( + T10 204 ) ) ( <= ( + T10 253 )( + T8 143 ) ) )
(or ( <= ( + T8 211 )  ( + T10 253 ) ) ( <= ( + T10 268 )( + T8 198 ) ) )
(or ( <= ( + T8 311 )  ( + T10 268 ) ) ( <= ( + T10 350 )( + T8 211 ) ) )
(or ( <= ( + T8 356 )  ( + T10 350 ) ) ( <= ( + T10 409 )( + T8 311 ) ) )
(or ( <= ( + T8 385 )  ( + T10 409 ) ) ( <= ( + T10 499 )( + T8 356 ) ) )
(or ( <= ( + T8 423 )  ( + T10 499 ) ) ( <= ( + T10 529 )( + T8 385 ) ) )
(or ( <= ( + T8 472 )  ( + T10 529 ) ) ( <= ( + T10 559 )( + T8 423 ) ) )
(or ( <= ( + T8 497 )  ( + T10 559 ) ) ( <= ( + T10 655 )( + T8 472 ) ) )
(or ( <= ( + T8 516 )  ( + T10 655 ) ) ( <= ( + T10 749 )( + T8 497 ) ) )
(or ( <= ( + T9 83 ) T10 ) ( <= ( + T10 38 ) T9 ) )
(or ( <= ( + T9 167 )  ( + T10 38 ) ) ( <= ( + T10 130 )( + T9 83 ) ) )
(or ( <= ( + T9 195 )  ( + T10 130 ) ) ( <= ( + T10 204 )( + T9 167 ) ) )
(or ( <= ( + T9 291 )  ( + T10 204 ) ) ( <= ( + T10 253 )( + T9 195 ) ) )
(or ( <= ( + T9 306 )  ( + T10 253 ) ) ( <= ( + T10 268 )( + T9 291 ) ) )
(or ( <= ( + T9 324 )  ( + T10 268 ) ) ( <= ( + T10 350 )( + T9 306 ) ) )
(or ( <= ( + T9 404 )  ( + T10 350 ) ) ( <= ( + T10 409 )( + T9 324 ) ) )
(or ( <= ( + T9 429 )  ( + T10 409 ) ) ( <= ( + T10 499 )( + T9 404 ) ) )
(or ( <= ( + T9 456 )  ( + T10 499 ) ) ( <= ( + T10 529 )( + T9 429 ) ) )
(or ( <= ( + T9 546 )  ( + T10 529 ) ) ( <= ( + T10 559 )( + T9 456 ) ) )
(or ( <= ( + T9 568 )  ( + T10 559 ) ) ( <= ( + T10 655 )( + T9 546 ) ) )
(or ( <= ( + T9 598 )  ( + T10 655 ) ) ( <= ( + T10 749 )( + T9 568 ) ) )
( <= ( + T1 498 ) Z)
( <= ( + T2 672 ) Z)
( <= ( + T3 577 ) Z)
( <= ( + T4 647 ) Z)
( <= ( + T5 633 ) Z)
( <= ( + T6 554 ) Z)
( <= ( + T7 443 ) Z)
( <= ( + T8 516 ) Z)
( <= ( + T9 598 ) Z)
( <= ( + T10 749 ) Z)
( >= T1 0 )
( >= T2 0 )
( >= T3 0 )
( >= T4 0 )
( >= T5 0 )
( >= T6 0 )
( >= T7 0 )
( >= T8 0 )
( >= T9 0 )
( >= T10 0 )
) )
)(=> $phi $goal))))